NAME : G100_2334_01
COMMENT : Generated CVRP instance (n=100)
TYPE : CVRP
DIMENSION : 101
EDGE_WEIGHT_TYPE : EUC_2D
CAPACITY : 120
NODE_COORD_SECTION
1    500  500 
2    249  862 
3    509  456 
4    395  980 
5    931  240 
6    346  59  
7    311  821 
8    136  87  
9    223  964 
10   171  783 
11   254  808 
12   408  811 
13   187  498 
14   43   926 
15   243  786 
16   714  612 
17   340  676 
18   180  788 
19   742  930 
20   381  994 
21   389  910 
22   524  926 
23   116  314 
24   294  985 
25   378  42  
26   264  779 
27   782  177 
28   300  754 
29   302  836 
30   905  757 
31   346  159 
32   774  17  
33   339  818 
34   552  117 
35   742  589 
36   823  489 
37   292  453 
38   276  774 
39   300  811 
40   419  847 
41   23   792 
42   389  971 
43   316  730 
44   531  774 
45   366  450 
46   998  288 
47   81   918 
48   63   10  
49   1000 715 
50   388  880 
51   337  688 
52   764  2   
53   303  958 
54   892  706 
55   466  744 
56   269  889 
57   303  921 
58   903  809 
59   893  927 
60   831  714 
61   215  335 
62   958  226 
63   788  871 
64   54   738 
65   296  811 
66   519  138 
67   444  693 
68   743  996 
69   264  680 
70   397  533 
71   449  897 
72   466  977 
73   301  446 
74   884  702 
75   430  877 
76   366  794 
77   179  294 
78   770  725 
79   334  753 
80   466  707 
81   343  957 
82   851  890 
83   929  791 
84   472  131 
85   442  432 
86   228  353 
87   343  374 
88   304  922 
89   255  325 
90   351  991 
91   219  725 
92   272  707 
93   62   897 
94   599  70  
95   320  484 
96   359  601 
97   302  432 
98   510  974 
99   430  972 
100  394  881 
101  377  819 
DEMAND_SECTION
1    0   
2    9   
3    6   
4    10  
5    9   
6    8   
7    5   
8    6   
9    8   
10   6   
11   6   
12   8   
13   9   
14   10  
15   9   
16   8   
17   9   
18   7   
19   6   
20   8   
21   10  
22   6   
23   9   
24   9   
25   9   
26   8   
27   9   
28   9   
29   8   
30   5   
31   8   
32   7   
33   6   
34   10  
35   10  
36   10  
37   10  
38   5   
39   9   
40   9   
41   10  
42   6   
43   6   
44   5   
45   9   
46   8   
47   9   
48   10  
49   9   
50   6   
51   5   
52   6   
53   8   
54   7   
55   8   
56   8   
57   10  
58   7   
59   9   
60   9   
61   10  
62   6   
63   9   
64   6   
65   7   
66   6   
67   6   
68   8   
69   7   
70   10  
71   7   
72   7   
73   9   
74   10  
75   9   
76   7   
77   6   
78   5   
79   7   
80   8   
81   9   
82   5   
83   7   
84   10  
85   7   
86   7   
87   10  
88   8   
89   9   
90   10  
91   8   
92   9   
93   10  
94   5   
95   5   
96   6   
97   6   
98   7   
99   5   
100  8   
101  9   
DEPOT_SECTION
1
-1
EOF
